c Command line: hgen8 160 80
p cnf 160 251
36 160 156 55 0
107 38 139 114 0
11 83 134 81 0
35 148 48 50 0
15 86 146 41 0
100 159 25 118 0
151 103 68 89 0
20 71 58 40 0
110 53 93 92 0
116 43 95 153 0
37 143 57 85 0
2 99 104 14 0
17 137 101 141 0
69 77 64 66 0
124 87 9 34 0
136 45 80 152 0
30 27 119 113 0
42 54 18 8 0
73 13 149 5 0
108 28 49 33 0
62 145 135 130 0
7 91 79 154 0
123 111 63 29 0
59 12 144 120 0
122 1 106 109 0
84 147 65 52 0
88 129 10 78 0
133 16 60 4 0
6 39 155 97 0
44 76 98 24 0
140 117 142 72 0
47 157 82 102 0
26 127 94 105 0
-1 -2 0
-1 -4 0
-1 -5 0
-2 -4 0
-2 -5 0
-4 -5 0
-6 -7 0
-6 -8 0
-6 -9 0
-6 -10 0
-7 -8 0
-7 -9 0
-7 -10 0
-8 -9 0
-8 -10 0
-9 -10 0
-11 -12 0
-11 -13 0
-11 -14 0
-11 -15 0
-12 -13 0
-12 -14 0
-12 -15 0
-13 -14 0
-13 -15 0
-14 -15 0
-16 -17 0
-16 -18 0
-16 -20 0
-17 -18 0
-17 -20 0
-18 -20 0
-24 -25 0
-26 -27 0
-26 -28 0
-26 -29 0
-26 -30 0
-27 -28 0
-27 -29 0
-27 -30 0
-28 -29 0
-28 -30 0
-29 -30 0
-33 -34 0
-33 -35 0
-34 -35 0
-36 -37 0
-36 -38 0
-36 -39 0
-36 -40 0
-37 -38 0
-37 -39 0
-37 -40 0
-38 -39 0
-38 -40 0
-39 -40 0
-41 -42 0
-41 -43 0
-41 -44 0
-41 -45 0
-42 -43 0
-42 -44 0
-42 -45 0
-43 -44 0
-43 -45 0
-44 -45 0
-47 -48 0
-47 -49 0
-47 -50 0
-48 -49 0
-48 -50 0
-49 -50 0
-52 -53 0
-52 -54 0
-52 -55 0
-53 -54 0
-53 -55 0
-54 -55 0
-57 -58 0
-57 -59 0
-57 -60 0
-58 -59 0
-58 -60 0
-59 -60 0
-62 -63 0
-62 -64 0
-62 -65 0
-63 -64 0
-63 -65 0
-64 -65 0
-66 -68 0
-66 -69 0
-68 -69 0
-71 -72 0
-71 -73 0
-72 -73 0
-76 -77 0
-76 -78 0
-76 -79 0
-76 -80 0
-77 -78 0
-77 -79 0
-77 -80 0
-78 -79 0
-78 -80 0
-79 -80 0
-81 -82 0
-81 -83 0
-81 -84 0
-81 -85 0
-82 -83 0
-82 -84 0
-82 -85 0
-83 -84 0
-83 -85 0
-84 -85 0
-86 -87 0
-86 -88 0
-86 -89 0
-87 -88 0
-87 -89 0
-88 -89 0
-91 -92 0
-91 -93 0
-91 -94 0
-91 -95 0
-92 -93 0
-92 -94 0
-92 -95 0
-93 -94 0
-93 -95 0
-94 -95 0
-97 -98 0
-97 -99 0
-97 -100 0
-98 -99 0
-98 -100 0
-99 -100 0
-101 -102 0
-101 -103 0
-101 -104 0
-101 -105 0
-102 -103 0
-102 -104 0
-102 -105 0
-103 -104 0
-103 -105 0
-104 -105 0
-106 -107 0
-106 -108 0
-106 -109 0
-106 -110 0
-107 -108 0
-107 -109 0
-107 -110 0
-108 -109 0
-108 -110 0
-109 -110 0
-111 -113 0
-111 -114 0
-113 -114 0
-116 -117 0
-116 -118 0
-116 -119 0
-116 -120 0
-117 -118 0
-117 -119 0
-117 -120 0
-118 -119 0
-118 -120 0
-119 -120 0
-122 -123 0
-122 -124 0
-123 -124 0
-127 -129 0
-127 -130 0
-129 -130 0
-133 -134 0
-133 -135 0
-134 -135 0
-136 -137 0
-136 -139 0
-136 -140 0
-137 -139 0
-137 -140 0
-139 -140 0
-141 -142 0
-141 -143 0
-141 -144 0
-141 -145 0
-142 -143 0
-142 -144 0
-142 -145 0
-143 -144 0
-143 -145 0
-144 -145 0
-146 -147 0
-146 -148 0
-146 -149 0
-147 -148 0
-147 -149 0
-148 -149 0
-151 -152 0
-151 -153 0
-151 -154 0
-151 -155 0
-152 -153 0
-152 -154 0
-152 -155 0
-153 -154 0
-153 -155 0
-154 -155 0
-156 -157 0
-156 -159 0
-156 -160 0
-157 -159 0
-157 -160 0
-159 -160 0
